25 500
  0     40.0     50.0       0.0      960.0      0.0       0.0       0.0  
  1     25.0     85.0      431.0     911.0     10.0       9.0      20.0  
  2     22.0     75.0      30.0      510.0     10.0      28.0      30.0  
  3     22.0     85.0      291.0     771.0     10.0       5.0      10.0  
  4     20.0     80.0      674.0     734.0     10.0      28.0      40.0  
  5     20.0     85.0      40.0      520.0     10.0      19.0      20.0  
  6     18.0     75.0      393.0     502.0     10.0      17.0      20.0  
  7     15.0     75.0      120.0     600.0     10.0      15.0      20.0  
  8     15.0     80.0      397.0     457.0     10.0       3.0      10.0  
  9     10.0     35.0      401.0     461.0     10.0       3.0      20.0  
 10     10.0     40.0      535.0     622.0     10.0       1.0      30.0  
 11      8.0     40.0      225.0     285.0     10.0       5.0      40.0  
 12      8.0     45.0      43.0      523.0     10.0       1.0      20.0  
 13      5.0     35.0      683.0     743.0     10.0       0.0      10.0  
 14      5.0     45.0      35.0      366.0     10.0       2.0      10.0  
 15      2.0     40.0      204.0     264.0     10.0       2.0      20.0  
 16      0.0     40.0      204.0     425.0     10.0      20.0      20.0  
 17      0.0     45.0      698.0     827.0     10.0       2.0      20.0  
 18     44.0      5.0      306.0     483.0     10.0       2.0      20.0  
 19     42.0     10.0      199.0     428.0     10.0      11.0      40.0  
 20     42.0     15.0      494.0     699.0     10.0       2.0      10.0  
 21     40.0      5.0      45.0      525.0     10.0       7.0      10.0  
 22     40.0     15.0      383.0     486.0     10.0      39.0      40.0  
 23     38.0      5.0      231.0     291.0     10.0       2.0      30.0  
 24     38.0     15.0      609.0     872.0     10.0       8.0      10.0  
 25     35.0      5.0      821.0     881.0     10.0      11.0      20.0  
 26     95.0     30.0      349.0     829.0     10.0      28.0      30.0  
 27     95.0     35.0      138.0     273.0     10.0      10.0      20.0  
 28     92.0     30.0      78.0      339.0     10.0       1.0      10.0  
 29     90.0     35.0      132.0     375.0     10.0       5.0      10.0  
 30     88.0     30.0      252.0     359.0     10.0       4.0      10.0  
 31     88.0     35.0      50.0      530.0     10.0      12.0      20.0  
 32     87.0     30.0      562.0     799.0     10.0       0.0      10.0  
 33     85.0     25.0      71.0      208.0     10.0       6.0      10.0  
 34     85.0     35.0      307.0     787.0     10.0      30.0      30.0  
 35     67.0     85.0      655.0     778.0     10.0       3.0      20.0  
 36     65.0     85.0      43.0      186.0     10.0      37.0      40.0  
 37     65.0     82.0      377.0     857.0     10.0       4.0      10.0  
 38     62.0     80.0      308.0     368.0     10.0      18.0      30.0  
 39     60.0     80.0      46.0      201.0     10.0       2.0      10.0  
 40     60.0     85.0      339.0     438.0     10.0      22.0      30.0  
 41     58.0     75.0      377.0     494.0     10.0      13.0      20.0  
 42     55.0     80.0      33.0      166.0     10.0       4.0      10.0  
 43     55.0     85.0      531.0     736.0     10.0      16.0      20.0  
 44     55.0     82.0      247.0     307.0     10.0       6.0      10.0  
 45     20.0     82.0      37.0      177.0     10.0       4.0      10.0  
 46     18.0     80.0      432.0     665.0     10.0       5.0      10.0  
 47      2.0     45.0      38.0      322.0     10.0       3.0      10.0  
 48     42.0      5.0      424.0     904.0     10.0       9.0      10.0  
 49     42.0     12.0      460.0     539.0     10.0       1.0      10.0  
 50     72.0     35.0      327.0     807.0     10.0      21.0      30.0  
 51     55.0     20.0      273.0     498.0     10.0      31.0      19.0  
 52     25.0     30.0      25.0      505.0     10.0       5.0       3.0  
 53     20.0     50.0      405.0     465.0     10.0      10.0       5.0  
 54     55.0     60.0      554.0     767.0     10.0      12.0      16.0  
 55     30.0     60.0      629.0     689.0     10.0       5.0      16.0  
 56     50.0     35.0      560.0     673.0     10.0      25.0      19.0  
 57     30.0     25.0      342.0     571.0     10.0      33.0      23.0  
 58     15.0     10.0      842.0     902.0     10.0       3.0      20.0  
 59     10.0     20.0      42.0      522.0     10.0      33.0      19.0  
 60     15.0     60.0      623.0     884.0     10.0      32.0      17.0  
 61     45.0     65.0      214.0     421.0     10.0      14.0       9.0  
 62     65.0     35.0      197.0     257.0     10.0       4.0       3.0  
 63     65.0     20.0      39.0      316.0     10.0       0.0       6.0  
 64     45.0     30.0      191.0     310.0     10.0      21.0      17.0  
 65     35.0     40.0      11.0      140.0     10.0       0.0      16.0  
 66     41.0     37.0      570.0     681.0     10.0       4.0      16.0  
 67     64.0     42.0      298.0     358.0     10.0      18.0       9.0  
 68     40.0     60.0      613.0     730.0     10.0      35.0      21.0  
 69     31.0     52.0      187.0     247.0     10.0      39.0      27.0  
 70     35.0     69.0      780.0     930.0     10.0      40.0      23.0  
 71     65.0     55.0      191.0     410.0     10.0      11.0      14.0  
 72     63.0     65.0      27.0      507.0     10.0       6.0       8.0  
 73      2.0     60.0      240.0     451.0     10.0       9.0       5.0  
 74     20.0     20.0      675.0     735.0     10.0       6.0       8.0  
 75      5.0      5.0      57.0      537.0     10.0       7.0      16.0  
 76     60.0     12.0      298.0     358.0     10.0      38.0      31.0  
 77     23.0      3.0      794.0     854.0     10.0      12.0       7.0  
 78      8.0     56.0      366.0     483.0     10.0      43.0      27.0  
 79      6.0     68.0      382.0     442.0     10.0      18.0      30.0  
 80     47.0     47.0      817.0     942.0     10.0      24.0      13.0  
 81     49.0     58.0      332.0     497.0     10.0       7.0      10.0  
 82     27.0     43.0      14.0      494.0     10.0      13.0       9.0  
 83     37.0     31.0      19.0      499.0     10.0       5.0      14.0  
 84     57.0     29.0      425.0     485.0     10.0       1.0      18.0  
 85     63.0     23.0      164.0     644.0     10.0       1.0       2.0  
 86     21.0     24.0      310.0     507.0     10.0       3.0      28.0  
 87     12.0     24.0      389.0     449.0     10.0      14.0      13.0  
 88     24.0     58.0      262.0     377.0     10.0      28.0      19.0  
 89     67.0      5.0      611.0     897.0     10.0      29.0      25.0  
 90     37.0     47.0      311.0     526.0     10.0       2.0       6.0  
 91     49.0     42.0      457.0     937.0     10.0      17.0      13.0  
 92     53.0     43.0      14.0      74.0      10.0       9.0      14.0  
 93     61.0     52.0      789.0     928.0     10.0       6.0       3.0  
 94     57.0     48.0      212.0     692.0     10.0      36.0      23.0  
 95     56.0     37.0      20.0      500.0     10.0       5.0       6.0  
 96     55.0     54.0      382.0     862.0     10.0      17.0      26.0  
 97      4.0     18.0      516.0     697.0     10.0      44.0      35.0  
 98     26.0     52.0      14.0      494.0     10.0      13.0       9.0  
 99     26.0     35.0      338.0     398.0     10.0      16.0      15.0  
 100    31.0     67.0      870.0     930.0     10.0       4.0       3.0  
